c description: Random 3-CNF over 21 variables and 89 clauses
c generator: CNFgen (0.9.2)
c copyright: (C) 2012-2022 Massimo Lauria <massimo.lauria@uniroma1.it>
c url: https://massimolauria.net/cnfgen
c command line: cnfgen --output CNF_4.28/21_bit_89_361.cnf randkcnf 3 21 89
c
p cnf 21 89
10 -14 -17 0
7 20 21 0
-4 -6 -8 0
2 18 -21 0
9 16 -21 0
3 -16 -18 0
2 -3 -12 0
-3 -14 16 0
11 16 -21 0
-7 10 21 0
-2 13 17 0
-3 6 11 0
2 -4 19 0
13 -14 19 0
-3 -5 9 0
11 -12 -19 0
-5 12 20 0
-2 -6 15 0
3 8 10 0
2 -12 -21 0
3 -8 15 0
-14 -15 18 0
-10 -13 20 0
-12 -13 16 0
-7 11 -19 0
6 9 15 0
7 -19 20 0
-5 9 -12 0
7 9 -20 0
14 16 -21 0
4 -14 21 0
1 -9 -16 0
-2 10 -21 0
6 8 19 0
2 11 19 0
3 -15 -17 0
2 -9 -18 0
-8 11 -17 0
-2 -14 21 0
-3 -4 11 0
13 -14 20 0
-6 7 -17 0
-4 13 -14 0
-1 4 -6 0
1 -11 -18 0
-1 -16 -21 0
-5 7 19 0
14 -15 -18 0
7 9 16 0
-13 16 17 0
3 -4 5 0
14 17 -19 0
-3 -4 -19 0
4 -9 21 0
11 -18 -19 0
8 14 19 0
-3 -4 -21 0
2 -10 20 0
-2 -10 -19 0
12 -15 -20 0
-6 13 -14 0
3 -5 13 0
4 -12 21 0
6 10 -14 0
4 -11 18 0
3 10 19 0
-11 13 -16 0
4 17 21 0
1 9 20 0
-11 -13 20 0
1 -3 9 0
-4 19 -20 0
5 -7 8 0
6 -7 9 0
-15 18 20 0
8 -14 20 0
-8 -12 -20 0
3 6 15 0
-3 -5 16 0
-3 8 -19 0
9 -11 19 0
-1 -2 -21 0
14 -15 -20 0
-4 17 -19 0
7 -16 -19 0
-4 -6 -7 0
-9 -12 18 0
4 -13 -20 0
5 -9 21 0
